logs/cplex/in1 - small.log
Version identifier: 22.1.1.0 | 2022-11-28 | 9160aff4d
Tried aggregator 1 time.
Reduced MIP has 51 rows, 38 columns, and 135 nonzeros.
Reduced MIP has 38 binaries, 0 generals, 0 SOSs, and 0 indicators.
Presolve time = 0.01 sec. (0.08 ticks)
Found incumbent of value 113.000000 after 0.02 sec. (0.10 ticks)
Probing time = 0.00 sec. (0.04 ticks)
Tried aggregator 1 time.
Detecting symmetries...
Reduced MIP has 51 rows, 38 columns, and 135 nonzeros.
Reduced MIP has 38 binaries, 0 generals, 0 SOSs, and 0 indicators.
Presolve time = 0.00 sec. (0.10 ticks)
Probing time = 0.00 sec. (0.04 ticks)
Clique table members: 36.
MIP emphasis: balance optimality and feasibility.
MIP search method: dynamic search.
Parallel mode: deterministic, using up to 14 threads.
Root relaxation solution time = 0.01 sec. (0.08 ticks)

        Nodes                                         Cuts/
   Node  Left     Objective  IInf  Best Integer    Best Bound    ItCnt     Gap

*     0+    0                          113.0000        0.0000           100.00%
*     0+    0                           75.0000        0.0000           100.00%
*     0+    0                           43.0000        0.0000           100.00%
      0     0       39.2500    18       43.0000       39.2500       18    8.72%
      0     0       42.0000    13       43.0000      Cuts: 14       28    2.33%
      0     0        cutoff             43.0000                     28    0.00%
Elapsed time = 0.27 sec. (1.04 ticks, tree = 0.01 MB, solutions = 3)

Implied bound cuts applied:  4
Zero-half cuts applied:  5
Gomory fractional cuts applied:  1

Root node processing (before b&c):
  Real time             =    0.27 sec. (1.04 ticks)
Parallel b&c, 14 threads:
  Real time             =    0.00 sec. (0.00 ticks)
  Sync time (average)   =    0.00 sec.
  Wait time (average)   =    0.00 sec.
                          ------------
Total (root+branch&cut) =    0.27 sec. (1.04 ticks)
Status: Optimal
Obj: 43

Instalacoes abertas:
Instalação 0 aberta
Instalação 1 aberta
Instalação 3 aberta

Atribuições (cliente -> instalação):
Cliente 0 -> Instalação 0
Cliente 1 -> Instalação 1
Cliente 2 -> Instalação 3
Cliente 3 -> Instalação 3
Cliente 4 -> Instalação 3
Cliente 5 -> Instalação 3
